HUN,8,6,199
1,13,2,15,0,8,4,24,3,27,5,7
0,16,2,22,1,29,4,23,3,13,5,22
0,20,2,18,1,27,3,20,5,21,4,2
2,25,0,28,1,5,5,28,4,16,3,24
0,18,1,3,2,30,5,25,3,25,4,5
0,17,2,27,1,21,4,3,5,15,3,17
0,21,1,18,2,3,5,10,3,20,4,21
0,10,2,19,1,29,3,17,4,6,5,19
